
Gurobi 9.5.1 (win64) logging started Mon Sep 18 23:51:34 2023

Set parameter LogFile to value "consol_info_3"

Gurobi 9.5.1 (win64) logging started Thu Nov  9 18:08:16 2023

Set parameter LogFile to value "consol_info_3"

Gurobi 9.5.1 (win64) logging started Sat Nov 11 13:09:07 2023

Set parameter LogFile to value "consol_info_3"
